<number of tasks>
70

<cycle time>
185

<task times>
1 17
2 66
3 54
4 52
5 6
6 88
7 21
8 128
9 68
10 70
11 85
12 21
13 134
14 135
15 94
16 90
17 50
18 143
19 19
20 54
21 50
22 40
23 73
24 12
25 152
26 42
27 45
28 74
29 26
30 11
31 31
32 50
33 102
34 46
35 35
36 40
37 2
38 1
39 3
40 13
41 16
42 25
43 21
44 43
45 30
46 83
47 89
48 56
49 59
50 43
51 11
52 26
53 44
54 121
55 38
56 68
57 22
58 7
59 16
60 32
61 25
62 27
63 156
64 28
65 15
66 26
67 18
68 72
69 23
70 27

<precedence relations>
1,2
1,41
1,69
1,70
2,3
3,4
3,68
4,6
4,7
5,6
5,24
5,30
6,8
7,8
8,12
9,10
10,11
11,12
12,13
12,14
13,23
14,23
15,16
16,17
16,18
17,19
18,19
19,20
19,22
19,57
20,21
21,23
22,23
23,25
23,31
23,33
24,25
25,26
25,27
25,28
25,29
26,35
27,35
28,35
29,35
30,31
31,32
32,35
33,34
34,35
35,36
35,44
35,48
35,51
35,53
35,56
35,60
35,61
35,62
36,37
37,38
38,39
39,40
40,42
41,42
42,43
43,50
44,45
45,46
46,47
47,50
48,49
49,50
51,52
52,54
53,54
54,55
57,58
58,59
59,60
61,65
62,63
63,64
64,65
64,66
64,67

<setup times forward>
1,9:10
1,10:4
1,11:5
1,15:10
1,16:4
1,17:3
1,20:4
1,21:4
1,22:9
1,58:9
1,59:6
1,69:10
1,70:6
2,9:10
2,10:4
2,11:5
2,15:10
2,16:4
2,17:3
2,20:4
2,21:4
2,22:9
2,58:9
2,59:6
2,69:10
2,70:6
3,4:4
3,9:10
3,10:4
3,11:5
3,15:10
3,16:4
3,17:3
3,20:4
3,21:4
3,22:9
3,58:9
3,59:6
3,68:5
3,69:10
3,70:6
4,5:4
4,9:14
4,10:8
4,11:1
4,15:14
4,16:8
4,17:7
4,18:4
4,19:4
4,22:5
4,24:4
4,30:4
4,41:4
4,57:4
4,58:5
4,59:10
4,68:1
4,69:14
4,70:10
5,4:4
5,6:4
5,7:4
5,9:10
5,10:4
5,11:5
5,15:10
5,16:4
5,17:3
5,20:4
5,21:4
5,22:9
5,58:9
5,59:6
5,68:5
5,69:10
5,70:6
6,8:7
6,9:14
6,10:8
6,11:1
6,15:14
6,16:8
6,17:7
6,18:4
6,19:4
6,22:5
6,24:4
6,30:4
6,41:4
6,57:4
6,58:5
6,59:10
6,68:1
6,69:14
6,70:10
7,5:4
7,8:7
7,9:14
7,10:8
7,11:1
7,15:14
7,16:8
7,17:7
7,18:4
7,19:4
7,22:5
7,24:4
7,30:4
7,41:4
7,57:4
7,58:5
7,59:10
7,68:1
7,69:14
7,70:10
8,9:7
8,10:1
8,11:8
8,12:8
8,15:7
8,16:1
8,18:3
8,19:3
8,20:7
8,21:7
8,22:12
8,24:3
8,30:3
8,41:3
8,57:3
8,58:12
8,59:3
8,68:8
8,69:7
8,70:3
9,1:10
9,2:10
9,3:10
9,4:14
9,5:10
9,6:14
9,7:14
9,8:7
9,10:6
9,16:6
9,17:7
9,18:10
9,19:10
9,20:14
9,21:14
9,22:19
9,24:10
9,30:10
9,41:10
9,57:10
9,58:19
9,59:4
9,68:15
9,70:4
10,1:4
10,2:4
10,3:4
10,4:8
10,5:4
10,6:8
10,7:8
10,8:1
10,11:9
10,15:6
10,17:1
10,18:4
10,19:4
10,20:8
10,21:8
10,22:13
10,24:4
10,30:4
10,41:4
10,57:4
10,58:13
10,59:2
10,68:9
10,69:6
10,70:2
11,1:5
11,2:5
11,3:5
11,4:1
11,5:5
11,6:1
11,7:1
11,8:8
11,15:15
11,16:9
11,17:8
11,18:5
11,19:5
11,20:1
11,21:1
11,22:4
11,24:5
11,30:5
11,41:5
11,57:5
11,58:4
11,59:11
11,69:15
11,70:11
12,13:11
12,14:4
12,15:15
12,16:9
12,17:8
12,18:5
12,19:5
12,20:1
12,21:1
12,22:4
12,24:5
12,30:5
12,41:5
12,57:5
12,58:4
12,59:11
12,69:15
12,70:11
13,14:15
13,15:4
13,16:2
13,17:3
13,18:6
13,19:6
13,20:10
13,21:10
13,22:15
13,23:10
13,24:6
13,30:6
13,41:6
13,57:6
13,58:15
13,68:11
13,69:4
14,13:15
14,15:19
14,16:13
14,17:12
14,18:9
14,19:9
14,20:5
14,21:5
14,23:5
14,24:9
14,30:9
14,41:9
14,57:9
14,59:15
14,68:4
14,69:19
14,70:15
15,1:10
15,2:10
15,3:10
15,4:14
15,5:10
15,6:14
15,7:14
15,8:7
15,10:6
15,11:15
15,12:15
15,13:4
15,14:19
15,16:6
15,24:10
15,30:10
15,41:10
15,68:15
15,70:4
16,1:4
16,2:4
16,3:4
16,4:8
16,5:4
16,6:8
16,7:8
16,8:1
16,9:6
16,11:9
16,12:9
16,13:2
16,14:13
16,17:1
16,18:4
16,24:4
16,30:4
16,41:4
16,68:9
16,69:6
16,70:2
17,1:3
17,2:3
17,3:3
17,4:7
17,5:3
17,6:7
17,7:7
17,9:7
17,10:1
17,11:8
17,12:8
17,13:3
17,14:12
17,18:3
17,19:3
17,24:3
17,30:3
17,41:3
17,68:8
17,69:7
17,70:3
18,4:4
18,6:4
18,7:4
18,8:3
18,9:10
18,10:4
18,11:5
18,12:5
18,13:6
18,14:9
18,17:3
18,68:5
18,69:10
18,70:6
19,4:4
19,6:4
19,7:4
19,8:3
19,9:10
19,10:4
19,11:5
19,12:5
19,13:6
19,14:9
19,20:4
19,22:9
19,68:5
19,69:10
19,70:6
20,1:4
20,2:4
20,3:4
20,5:4
20,8:7
20,9:14
20,10:8
20,11:1
20,12:1
20,13:10
20,14:5
20,22:5
20,24:4
20,30:4
20,41:4
20,57:4
20,58:5
20,59:10
20,68:1
20,69:14
20,70:10
21,1:4
21,2:4
21,3:4
21,5:4
21,8:7
21,9:14
21,10:8
21,11:1
21,12:1
21,13:10
21,14:5
21,22:5
21,24:4
21,30:4
21,41:4
21,57:4
21,58:5
21,59:10
21,68:1
21,69:14
21,70:10
22,1:9
22,2:9
22,3:9
22,4:5
22,5:9
22,6:5
22,7:5
22,8:12
22,9:19
22,10:13
22,11:4
22,12:4
22,13:15
22,20:5
22,21:5
22,23:5
22,24:9
22,30:9
22,41:9
22,57:9
22,59:15
22,68:4
22,69:19
22,70:15
23,24:4
23,25:7
23,30:4
23,31:7
23,33:3
23,41:4
23,57:4
23,58:5
23,59:10
23,68:1
23,69:14
23,70:10
24,4:4
24,6:4
24,7:4
24,8:3
24,9:10
24,10:4
24,11:5
24,12:5
24,13:6
24,14:9
24,15:10
24,16:4
24,17:3
24,20:4
24,21:4
24,22:9
24,23:4
24,25:11
24,31:11
24,32:3
24,33:1
24,34:3
24,58:9
24,59:6
24,68:5
24,69:10
24,70:6
25,26:14
25,27:14
25,28:10
25,29:18
25,30:11
25,32:14
25,33:10
25,34:14
25,41:11
25,57:11
25,58:2
25,59:17
25,68:6
25,69:21
25,70:17
26,28:4
26,29:4
26,30:3
26,31:14
26,33:4
26,35:4
26,41:3
26,57:3
26,58:12
26,59:3
26,68:8
26,69:7
26,70:3
27,28:4
27,29:4
27,30:3
27,31:14
27,33:4
27,35:4
27,41:3
27,57:3
27,58:12
27,59:3
27,68:8
27,69:7
27,70:3
28,26:4
28,27:4
28,29:8
28,30:1
28,31:10
28,32:4
28,34:4
28,35:8
28,41:1
28,57:1
28,58:8
28,59:7
28,68:4
28,69:11
28,70:7
29,26:4
29,27:4
29,28:8
29,30:7
29,31:18
29,32:4
29,33:8
29,34:4
29,41:7
29,57:7
29,58:16
29,59:1
29,68:12
29,69:3
29,70:1
30,4:4
30,6:4
30,7:4
30,8:3
30,9:10
30,10:4
30,11:5
30,12:5
30,13:6
30,14:9
30,15:10
30,16:4
30,17:3
30,20:4
30,21:4
30,22:9
30,23:4
30,25:11
30,26:3
30,27:3
30,28:1
30,29:7
30,31:11
30,33:1
30,34:3
30,58:9
30,59:6
30,68:5
30,69:10
30,70:6
31,24:11
31,26:14
31,27:14
31,28:10
31,29:18
31,32:14
31,33:10
31,34:14
31,41:11
31,57:11
31,58:2
31,59:17
31,68:6
31,69:21
31,70:17
32,24:3
32,25:14
32,28:4
32,29:4
32,33:4
32,35:4
32,41:3
32,57:3
32,58:12
32,59:3
32,68:8
32,69:7
32,70:3
33,24:1
33,25:10
33,26:4
33,27:4
33,29:8
33,30:1
33,31:10
33,32:4
33,34:4
33,41:1
33,57:1
33,58:8
33,59:7
33,68:4
33,69:11
33,70:7
34,24:3
34,25:14
34,28:4
34,29:4
34,30:3
34,31:14
34,35:4
34,41:3
34,57:3
34,58:12
34,59:3
34,68:8
34,69:7
34,70:3
35,36:5
35,41:7
35,48:18
35,53:18
35,56:9
35,57:7
35,58:16
35,59:1
35,60:5
35,61:5
35,68:12
35,69:3
35,70:1
36,41:2
36,44:5
36,45:5
36,46:13
36,47:4
36,48:13
36,49:8
36,51:5
36,52:15
36,53:13
36,54:8
36,55:5
36,56:4
36,57:2
36,58:11
36,59:4
36,62:5
36,63:15
36,64:4
36,65:5
36,66:5
36,68:7
36,69:8
36,70:4
37,38:5
37,41:2
37,44:5
37,45:5
37,46:13
37,47:4
37,48:13
37,49:8
37,51:5
37,52:15
37,53:13
37,54:8
37,55:5
37,56:4
37,57:2
37,58:11
37,59:4
37,62:5
37,63:15
37,64:4
37,65:5
37,66:5
37,68:7
37,69:8
37,70:4
38,41:7
38,46:18
38,47:9
38,48:18
38,49:3
38,52:20
38,53:18
38,54:3
38,56:9
38,57:7
38,58:16
38,59:1
38,60:5
38,61:5
38,63:20
38,64:9
38,67:5
38,68:12
38,69:3
38,70:1
39,41:7
39,46:18
39,47:9
39,48:18
39,49:3
39,52:20
39,53:18
39,54:3
39,56:9
39,57:7
39,58:16
39,59:1
39,60:5
39,61:5
39,63:20
39,64:9
39,67:5
39,68:12
39,69:3
39,70:1
40,41:7
40,46:18
40,47:9
40,48:18
40,49:3
40,52:20
40,53:18
40,54:3
40,56:9
40,57:7
40,58:16
40,59:1
40,60:5
40,61:5
40,63:20
40,64:9
40,67:5
40,68:12
40,69:3
40,70:1
41,4:4
41,6:4
41,7:4
41,8:3
41,9:10
41,10:4
41,11:5
41,12:5
41,13:6
41,14:9
41,15:10
41,16:4
41,17:3
41,20:4
41,21:4
41,22:9
41,23:4
41,25:11
41,26:3
41,27:3
41,28:1
41,29:7
41,31:11
41,32:3
41,33:1
41,34:3
41,35:7
41,36:2
41,37:2
41,38:7
41,39:7
41,40:7
41,42:7
41,44:7
41,45:7
41,46:11
41,47:2
41,48:11
41,49:10
41,51:7
41,52:13
41,53:11
41,54:10
41,55:7
41,56:2
41,58:9
41,59:6
41,60:2
41,61:2
41,62:7
41,63:13
41,64:2
41,65:7
41,66:7
41,67:2
41,68:5
41,69:10
41,70:6
42,46:18
42,47:9
42,48:18
42,49:3
42,52:20
42,53:18
42,54:3
42,56:9
42,57:7
42,58:16
42,59:1
42,60:5
42,61:5
42,63:20
42,64:9
42,67:5
42,68:12
42,69:3
42,70:1
43,46:18
43,47:9
43,48:18
43,49:3
43,52:20
43,53:18
43,54:3
43,56:9
43,57:7
43,58:16
43,59:1
43,60:5
43,61:5
43,63:20
43,64:9
43,67:5
43,68:12
43,69:3
43,70:1
44,36:5
44,37:5
44,41:7
44,48:18
44,49:3
44,52:20
44,53:18
44,54:3
44,56:9
44,57:7
44,58:16
44,59:1
44,60:5
44,61:5
44,63:20
44,64:9
44,67:5
44,68:12
44,69:3
44,70:1
45,36:5
45,37:5
45,41:7
45,46:18
45,48:18
45,49:3
45,52:20
45,53:18
45,54:3
45,56:9
45,57:7
45,58:16
45,59:1
45,60:5
45,61:5
45,63:20
45,64:9
45,67:5
45,68:12
45,69:3
45,70:1
46,36:13
46,37:13
46,38:18
46,39:18
46,40:18
46,41:11
46,42:18
46,43:18
46,47:9
46,49:21
46,51:18
46,52:2
46,54:21
46,55:18
46,56:9
46,57:11
46,58:2
46,59:17
46,60:13
46,61:13
46,62:18
46,63:2
46,64:9
46,65:18
46,66:18
46,67:13
46,68:6
46,69:21
46,70:17
47,36:4
47,37:4
47,38:9
47,39:9
47,40:9
47,41:2
47,42:9
47,43:9
47,48:9
47,49:12
47,50:9
47,51:9
47,52:11
47,53:9
47,54:12
47,55:9
47,57:2
47,58:7
47,59:8
47,60:4
47,61:4
47,62:9
47,63:11
47,65:9
47,66:9
47,67:4
47,68:3
47,69:12
47,70:8
48,36:13
48,37:13
48,38:18
48,39:18
48,40:18
48,41:11
48,42:18
48,43:18
48,44:18
48,45:18
48,47:9
48,49:21
48,51:18
48,52:2
48,54:21
48,55:18
48,56:9
48,57:11
48,58:2
48,59:17
48,60:13
48,61:13
48,62:18
48,63:2
48,64:9
48,65:18
48,66:18
48,67:13
48,68:6
48,69:21
48,70:17
49,36:8
49,37:8
49,38:3
49,39:3
49,40:3
49,41:10
49,42:3
49,43:3
49,44:3
49,45:3
49,46:21
49,47:12
49,50:3
49,51:3
49,52:23
49,53:21
49,55:3
49,56:12
49,57:10
49,58:19
49,59:4
49,60:8
49,61:8
49,62:3
49,63:23
49,64:12
49,65:3
49,66:3
49,67:8
49,68:15
49,70:4
50,52:20
50,53:18
50,54:3
50,56:9
50,57:7
50,58:16
50,59:1
50,60:5
50,61:5
50,63:20
50,64:9
50,67:5
50,68:12
50,69:3
50,70:1
51,36:5
51,37:5
51,41:7
51,46:18
51,47:9
51,48:18
51,49:3
51,52:20
51,53:18
51,56:9
51,57:7
51,58:16
51,59:1
51,60:5
51,61:5
51,63:20
51,64:9
51,67:5
51,68:12
51,69:3
51,70:1
52,36:15
52,37:15
52,38:20
52,39:20
52,40:20
52,41:13
52,42:20
52,43:20
52,44:20
52,45:20
52,46:2
52,47:11
52,48:2
52,49:23
52,50:20
52,53:2
52,54:23
52,56:11
52,57:13
52,58:4
52,59:19
52,60:15
52,61:15
52,62:20
52,64:11
52,65:20
52,66:20
52,67:15
52,68:8
52,69:23
52,70:19
53,36:13
53,37:13
53,38:18
53,39:18
53,40:18
53,41:11
53,42:18
53,43:18
53,44:18
53,45:18
53,47:9
53,49:21
53,50:18
53,51:18
53,52:2
53,54:21
53,56:9
53,57:11
53,58:2
53,59:17
53,60:13
53,61:13
53,62:18
53,63:2
53,64:9
53,65:18
53,66:18
53,67:13
53,68:6
53,69:21
53,70:17
54,36:8
54,37:8
54,38:3
54,39:3
54,40:3
54,41:10
54,42:3
54,43:3
54,44:3
54,45:3
54,46:21
54,47:12
54,48:21
54,50:3
54,55:3
54,56:12
54,57:10
54,58:19
54,59:4
54,60:8
54,61:8
54,62:3
54,63:23
54,64:12
54,65:3
54,66:3
54,67:8
54,68:15
54,70:4
55,36:5
55,37:5
55,41:7
55,46:18
55,47:9
55,48:18
55,49:3
55,56:9
55,57:7
55,58:16
55,59:1
55,60:5
55,61:5
55,63:20
55,64:9
55,67:5
55,68:12
55,69:3
55,70:1
56,36:4
56,37:4
56,38:9
56,39:9
56,40:9
56,41:2
56,42:9
56,43:9
56,44:9
56,45:9
56,46:9
56,48:9
56,49:12
56,50:9
56,51:9
56,52:11
56,53:9
56,54:12
56,55:9
56,57:2
56,58:7
56,59:8
56,60:4
56,61:4
56,62:9
56,63:11
56,65:9
56,66:9
56,67:4
56,68:3
56,69:12
56,70:8
57,4:4
57,6:4
57,7:4
57,8:3
57,9:10
57,10:4
57,11:5
57,12:5
57,13:6
57,14:9
57,20:4
57,21:4
57,22:9
57,23:4
57,25:11
57,26:3
57,27:3
57,28:1
57,29:7
57,31:11
57,32:3
57,33:1
57,34:3
57,35:7
57,36:2
57,37:2
57,38:7
57,39:7
57,40:7
57,42:7
57,43:7
57,44:7
57,45:7
57,46:11
57,47:2
57,48:11
57,49:10
57,50:7
57,51:7
57,52:13
57,53:11
57,54:10
57,55:7
57,56:2
57,58:9
57,61:2
57,62:7
57,63:13
57,64:2
57,65:7
57,66:7
57,67:2
57,68:5
57,69:10
57,70:6
58,1:9
58,2:9
58,3:9
58,4:5
58,5:9
58,6:5
58,7:5
58,8:12
58,9:19
58,10:13
58,11:4
58,12:4
58,13:15
58,20:5
58,21:5
58,23:5
58,24:9
58,25:2
58,26:12
58,27:12
58,28:8
58,29:16
58,30:9
58,31:2
58,32:12
58,33:8
58,34:12
58,35:16
58,36:11
58,37:11
58,38:16
58,39:16
58,40:16
58,41:9
58,42:16
58,43:16
58,44:16
58,45:16
58,46:2
58,47:7
58,48:2
58,49:19
58,50:16
58,51:16
58,52:4
58,53:2
58,54:19
58,55:16
58,56:7
58,59:15
58,61:11
58,62:16
58,63:4
58,64:7
58,65:16
58,66:16
58,67:11
58,68:4
58,69:19
58,70:15
59,1:6
59,2:6
59,3:6
59,4:10
59,5:6
59,6:10
59,7:10
59,8:3
59,9:4
59,10:2
59,11:11
59,12:11
59,14:15
59,20:10
59,21:10
59,22:15
59,23:10
59,24:6
59,25:17
59,26:3
59,27:3
59,28:7
59,29:1
59,30:6
59,31:17
59,32:3
59,33:7
59,34:3
59,35:1
59,36:4
59,37:4
59,38:1
59,39:1
59,40:1
59,41:6
59,42:1
59,43:1
59,44:1
59,45:1
59,46:17
59,47:8
59,48:17
59,49:4
59,50:1
59,51:1
59,52:19
59,53:17
59,54:4
59,55:1
59,56:8
59,60:4
59,61:4
59,62:1
59,63:19
59,64:8
59,65:1
59,66:1
59,67:4
59,68:11
59,69:4
60,38:5
60,39:5
60,40:5
60,41:2
60,42:5
60,43:5
60,44:5
60,45:5
60,46:13
60,47:4
60,48:13
60,49:8
60,50:5
60,51:5
60,52:15
60,53:13
60,54:8
60,55:5
60,56:4
60,62:5
60,63:15
60,64:4
60,65:5
60,66:5
60,68:7
60,69:8
60,70:4
61,38:5
61,39:5
61,40:5
61,41:2
61,42:5
61,43:5
61,44:5
61,45:5
61,46:13
61,47:4
61,48:13
61,49:8
61,50:5
61,51:5
61,52:15
61,53:13
61,54:8
61,55:5
61,56:4
61,57:2
61,58:11
61,59:4
61,62:5
61,63:15
61,64:4
61,65:5
61,66:5
61,68:7
61,69:8
61,70:4
62,36:5
62,37:5
62,41:7
62,46:18
62,47:9
62,48:18
62,49:3
62,52:20
62,53:18
62,54:3
62,56:9
62,57:7
62,58:16
62,59:1
62,60:5
62,61:5
62,63:20
62,68:12
62,69:3
62,70:1
63,36:15
63,37:15
63,38:20
63,39:20
63,40:20
63,41:13
63,42:20
63,43:20
63,44:20
63,45:20
63,46:2
63,47:11
63,48:2
63,49:23
63,50:20
63,51:20
63,53:2
63,54:23
63,55:20
63,56:11
63,57:13
63,58:4
63,59:19
63,60:15
63,61:15
63,64:11
63,68:8
63,69:23
63,70:19
64,36:4
64,37:4
64,38:9
64,39:9
64,40:9
64,41:2
64,42:9
64,43:9
64,44:9
64,45:9
64,46:9
64,48:9
64,49:12
64,50:9
64,51:9
64,52:11
64,53:9
64,54:12
64,55:9
64,57:2
64,58:7
64,59:8
64,60:4
64,61:4
64,65:9
64,66:9
64,67:4
64,68:3
64,69:12
64,70:8
65,36:5
65,37:5
65,41:7
65,46:18
65,47:9
65,48:18
65,49:3
65,52:20
65,53:18
65,54:3
65,56:9
65,57:7
65,58:16
65,59:1
65,60:5
65,67:5
65,68:12
65,69:3
65,70:1
66,36:5
66,37:5
66,41:7
66,46:18
66,47:9
66,48:18
66,49:3
66,52:20
66,53:18
66,54:3
66,56:9
66,57:7
66,58:16
66,59:1
66,60:5
66,61:5
66,67:5
66,68:12
66,69:3
66,70:1
67,38:5
67,39:5
67,40:5
67,41:2
67,42:5
67,43:5
67,44:5
67,45:5
67,46:13
67,47:4
67,48:13
67,49:8
67,50:5
67,51:5
67,52:15
67,53:13
67,54:8
67,55:5
67,56:4
67,57:2
67,58:11
67,59:4
67,65:5
67,66:5
67,68:7
67,69:8
67,70:4
68,4:1
68,5:5
68,6:1
68,7:1
68,8:8
68,9:15
68,10:9
68,13:11
68,14:4
68,15:15
68,16:9
68,17:8
68,18:5
68,19:5
68,20:1
68,21:1
68,22:4
68,23:1
68,24:5
68,25:6
68,26:8
68,27:8
68,28:4
68,29:12
68,30:5
68,31:6
68,32:8
68,33:4
68,34:8
68,35:12
68,36:7
68,37:7
68,38:12
68,39:12
68,40:12
68,41:5
68,42:12
68,43:12
68,44:12
68,45:12
68,46:6
68,47:3
68,48:6
68,49:15
68,50:12
68,51:12
68,52:8
68,53:6
68,54:15
68,55:12
68,56:3
68,57:5
68,58:4
68,59:11
68,60:7
68,61:7
68,62:12
68,63:8
68,64:3
68,65:12
68,66:12
68,67:7
68,69:15
68,70:11
69,2:10
69,3:10
69,4:14
69,5:10
69,6:14
69,7:14
69,8:7
69,10:6
69,11:15
69,12:15
69,13:4
69,14:19
69,16:6
69,17:7
69,18:10
69,19:10
69,20:14
69,21:14
69,22:19
69,23:14
69,24:10
69,25:21
69,26:7
69,27:7
69,28:11
69,29:3
69,30:10
69,31:21
69,32:7
69,33:11
69,34:7
69,35:3
69,36:8
69,37:8
69,38:3
69,39:3
69,40:3
69,41:10
69,42:3
69,43:3
69,44:3
69,45:3
69,46:21
69,47:12
69,48:21
69,50:3
69,51:3
69,52:23
69,53:21
69,55:3
69,56:12
69,57:10
69,58:19
69,59:4
69,60:8
69,61:8
69,62:3
69,63:23
69,64:12
69,65:3
69,66:3
69,67:8
69,68:15
69,70:4
70,2:6
70,3:6
70,4:10
70,5:6
70,6:10
70,7:10
70,8:3
70,9:4
70,10:2
70,11:11
70,12:11
70,14:15
70,15:4
70,16:2
70,17:3
70,18:6
70,19:6
70,20:10
70,21:10
70,22:15
70,23:10
70,24:6
70,25:17
70,26:3
70,27:3
70,28:7
70,29:1
70,30:6
70,31:17
70,32:3
70,33:7
70,34:3
70,35:1
70,36:4
70,37:4
70,38:1
70,39:1
70,40:1
70,41:6
70,42:1
70,43:1
70,44:1
70,45:1
70,46:17
70,47:8
70,48:17
70,49:4
70,50:1
70,51:1
70,52:19
70,53:17
70,54:4
70,55:1
70,56:8
70,57:6
70,58:15
70,60:4
70,61:4
70,62:1
70,63:19
70,64:8
70,65:1
70,66:1
70,67:4
70,68:11
70,69:4

<setup times backward>
1,11:5
1,20:4
1,21:4
1,22:9
1,58:9
2,11:5
2,20:4
2,21:4
2,22:9
2,58:9
3,11:5
3,20:4
3,21:4
3,22:9
3,58:9
4,11:1
4,22:5
4,58:5
4,68:1
5,4:4
5,7:4
5,11:5
5,20:4
5,21:4
5,22:9
5,58:9
5,68:5
6,11:1
6,22:5
6,58:5
6,68:1
7,11:1
7,22:5
7,58:5
7,68:1
8,1:3
8,2:3
8,3:3
8,4:7
8,5:3
8,6:7
8,7:7
8,11:8
8,18:3
8,19:3
8,20:7
8,21:7
8,22:12
8,24:3
8,30:3
8,41:3
8,57:3
8,58:12
8,68:8
9,1:10
9,2:10
9,3:10
9,4:14
9,5:10
9,6:14
9,7:14
9,8:7
9,16:6
9,17:7
9,18:10
9,19:10
9,20:14
9,21:14
9,22:19
9,24:10
9,30:10
9,41:10
9,57:10
9,58:19
9,59:4
9,68:15
9,70:4
10,1:4
10,2:4
10,3:4
10,4:8
10,5:4
10,6:8
10,7:8
10,8:1
10,17:1
10,18:4
10,19:4
10,20:8
10,21:8
10,22:13
10,24:4
10,30:4
10,41:4
10,57:4
10,58:13
10,68:9
11,22:4
11,58:4
12,22:4
12,58:4
13,1:6
13,2:6
13,3:6
13,4:10
13,5:6
13,6:10
13,7:10
13,8:3
13,10:2
13,11:11
13,12:11
13,14:15
13,16:2
13,17:3
13,18:6
13,19:6
13,20:10
13,21:10
13,22:15
13,24:6
13,30:6
13,41:6
13,57:6
13,58:15
13,68:11
15,1:10
15,2:10
15,3:10
15,4:14
15,5:10
15,6:14
15,7:14
15,8:7
15,10:6
15,11:15
15,12:15
15,13:4
15,14:19
15,24:10
15,30:10
15,41:10
15,68:15
15,70:4
16,1:4
16,2:4
16,3:4
16,4:8
16,5:4
16,6:8
16,7:8
16,8:1
16,11:9
16,12:9
16,14:13
16,24:4
16,30:4
16,41:4
16,68:9
17,1:3
17,2:3
17,3:3
17,4:7
17,5:3
17,6:7
17,7:7
17,11:8
17,12:8
17,14:12
17,18:3
17,24:3
17,30:3
17,41:3
17,68:8
18,4:4
18,6:4
18,7:4
18,11:5
18,12:5
18,14:9
18,68:5
19,4:4
19,6:4
19,7:4
19,11:5
19,12:5
19,14:9
19,68:5
20,11:1
20,12:1
20,14:5
20,22:5
20,58:5
20,68:1
21,11:1
21,12:1
21,14:5
21,22:5
21,58:5
21,68:1
23,11:1
23,12:1
23,14:5
23,22:5
23,58:5
23,68:1
24,4:4
24,6:4
24,7:4
24,11:5
24,12:5
24,14:9
24,20:4
24,21:4
24,22:9
24,23:4
24,31:11
24,33:1
24,58:9
24,68:5
26,1:3
26,2:3
26,3:3
26,4:7
26,5:3
26,6:7
26,7:7
26,11:8
26,12:8
26,14:12
26,18:3
26,19:3
26,20:7
26,21:7
26,22:12
26,23:7
26,24:3
26,25:14
26,28:4
26,30:3
26,31:14
26,33:4
26,41:3
26,57:3
26,58:12
26,68:8
27,1:3
27,2:3
27,3:3
27,4:7
27,5:3
27,6:7
27,7:7
27,11:8
27,12:8
27,14:12
27,18:3
27,19:3
27,20:7
27,21:7
27,22:12
27,23:7
27,24:3
27,25:14
27,28:4
27,30:3
27,31:14
27,33:4
27,41:3
27,57:3
27,58:12
27,68:8
28,4:3
28,6:3
28,7:3
28,11:4
28,12:4
28,14:8
28,20:3
28,21:3
28,22:8
28,23:3
28,25:10
28,31:10
28,58:8
28,68:4
29,1:7
29,2:7
29,3:7
29,4:11
29,5:7
29,6:11
29,7:11
29,8:4
29,10:3
29,11:12
29,12:12
29,13:1
29,14:16
29,16:3
29,17:4
29,18:7
29,19:7
29,20:11
29,21:11
29,22:16
29,23:11
29,24:7
29,25:18
29,26:4
29,27:4
29,28:8
29,30:7
29,31:18
29,32:4
29,33:8
29,34:4
29,41:7
29,57:7
29,58:16
29,59:1
29,68:12
29,70:1
30,4:4
30,6:4
30,7:4
30,11:5
30,12:5
30,14:9
30,20:4
30,21:4
30,22:9
30,23:4
30,25:11
30,28:1
30,33:1
30,58:9
30,68:5
32,1:3
32,2:3
32,3:3
32,4:7
32,5:3
32,6:7
32,7:7
32,11:8
32,12:8
32,14:12
32,18:3
32,19:3
32,20:7
32,21:7
32,22:12
32,23:7
32,24:3
32,25:14
32,28:4
32,30:3
32,31:14
32,33:4
32,41:3
32,57:3
32,58:12
32,68:8
33,4:3
33,6:3
33,7:3
33,11:4
33,12:4
33,14:8
33,20:3
33,21:3
33,22:8
33,23:3
33,25:10
33,31:10
33,58:8
33,68:4
34,1:3
34,2:3
34,3:3
34,4:7
34,5:3
34,6:7
34,7:7
34,11:8
34,12:8
34,14:12
34,18:3
34,19:3
34,20:7
34,21:7
34,22:12
34,23:7
34,24:3
34,25:14
34,28:4
34,30:3
34,31:14
34,33:4
34,41:3
34,57:3
34,58:12
34,68:8
35,1:7
35,2:7
35,3:7
35,4:11
35,5:7
35,6:11
35,7:11
35,8:4
35,10:3
35,11:12
35,12:12
35,13:1
35,14:16
35,16:3
35,17:4
35,18:7
35,19:7
35,20:11
35,21:11
35,22:16
35,23:11
35,24:7
35,25:18
35,26:4
35,27:4
35,28:8
35,30:7
35,31:18
35,32:4
35,33:8
35,34:4
35,41:7
35,57:7
35,58:16
35,59:1
35,68:12
35,70:1
36,1:2
36,2:2
36,3:2
36,4:6
36,5:2
36,6:6
36,7:6
36,11:7
36,12:7
36,14:11
36,18:2
36,19:2
36,20:6
36,21:6
36,22:11
36,23:6
36,24:2
36,25:13
36,28:3
36,30:2
36,31:13
36,33:3
36,41:2
36,46:13
36,47:4
36,48:13
36,52:15
36,53:13
36,56:4
36,57:2
36,58:11
36,63:15
36,64:4
36,68:7
37,1:2
37,2:2
37,3:2
37,4:6
37,5:2
37,6:6
37,7:6
37,11:7
37,12:7
37,14:11
37,18:2
37,19:2
37,20:6
37,21:6
37,22:11
37,23:6
37,24:2
37,25:13
37,28:3
37,30:2
37,31:13
37,33:3
37,41:2
37,46:13
37,47:4
37,48:13
37,52:15
37,53:13
37,56:4
37,57:2
37,58:11
37,63:15
37,64:4
37,68:7
38,1:7
38,2:7
38,3:7
38,4:11
38,5:7
38,6:11
38,7:11
38,8:4
38,10:3
38,11:12
38,12:12
38,13:1
38,14:16
38,16:3
38,17:4
38,18:7
38,19:7
38,20:11
38,21:11
38,22:16
38,23:11
38,24:7
38,25:18
38,26:4
38,27:4
38,28:8
38,30:7
38,31:18
38,32:4
38,33:8
38,34:4
38,36:5
38,37:5
38,41:7
38,46:18
38,47:9
38,48:18
38,52:20
38,53:18
38,56:9
38,57:7
38,58:16
38,59:1
38,60:5
38,61:5
38,63:20
38,64:9
38,67:5
38,68:12
38,70:1
39,1:7
39,2:7
39,3:7
39,4:11
39,5:7
39,6:11
39,7:11
39,8:4
39,10:3
39,11:12
39,12:12
39,13:1
39,14:16
39,16:3
39,17:4
39,18:7
39,19:7
39,20:11
39,21:11
39,22:16
39,23:11
39,24:7
39,25:18
39,26:4
39,27:4
39,28:8
39,30:7
39,31:18
39,32:4
39,33:8
39,34:4
39,36:5
39,37:5
39,41:7
39,46:18
39,47:9
39,48:18
39,52:20
39,53:18
39,56:9
39,57:7
39,58:16
39,59:1
39,60:5
39,61:5
39,63:20
39,64:9
39,67:5
39,68:12
39,70:1
40,1:7
40,2:7
40,3:7
40,4:11
40,5:7
40,6:11
40,7:11
40,8:4
40,10:3
40,11:12
40,12:12
40,13:1
40,14:16
40,16:3
40,17:4
40,18:7
40,19:7
40,20:11
40,21:11
40,22:16
40,23:11
40,24:7
40,25:18
40,26:4
40,27:4
40,28:8
40,30:7
40,31:18
40,32:4
40,33:8
40,34:4
40,36:5
40,37:5
40,41:7
40,46:18
40,47:9
40,48:18
40,52:20
40,53:18
40,56:9
40,57:7
40,58:16
40,59:1
40,60:5
40,61:5
40,63:20
40,64:9
40,67:5
40,68:12
40,70:1
41,4:4
41,6:4
41,7:4
41,11:5
41,12:5
41,14:9
41,20:4
41,21:4
41,22:9
41,23:4
41,25:11
41,28:1
41,31:11
41,33:1
41,46:11
41,47:2
41,48:11
41,52:13
41,53:11
41,56:2
41,58:9
41,63:13
41,64:2
41,68:5
42,1:7
42,2:7
42,3:7
42,4:11
42,5:7
42,6:11
42,7:11
42,8:4
42,10:3
42,11:12
42,12:12
42,13:1
42,14:16
42,16:3
42,17:4
42,18:7
42,19:7
42,20:11
42,21:11
42,22:16
42,23:11
42,24:7
42,25:18
42,26:4
42,27:4
42,28:8
42,30:7
42,31:18
42,32:4
42,33:8
42,34:4
42,36:5
42,37:5
42,41:7
42,46:18
42,47:9
42,48:18
42,52:20
42,53:18
42,56:9
42,57:7
42,58:16
42,59:1
42,60:5
42,61:5
42,63:20
42,64:9
42,67:5
42,68:12
42,70:1
43,1:7
43,2:7
43,3:7
43,4:11
43,5:7
43,6:11
43,7:11
43,8:4
43,10:3
43,11:12
43,12:12
43,13:1
43,14:16
43,16:3
43,17:4
43,18:7
43,19:7
43,20:11
43,21:11
43,22:16
43,23:11
43,24:7
43,25:18
43,26:4
43,27:4
43,28:8
43,30:7
43,31:18
43,32:4
43,33:8
43,34:4
43,36:5
43,37:5
43,41:7
43,46:18
43,47:9
43,48:18
43,52:20
43,53:18
43,56:9
43,57:7
43,58:16
43,59:1
43,60:5
43,61:5
43,63:20
43,64:9
43,67:5
43,68:12
43,70:1
44,1:7
44,2:7
44,3:7
44,4:11
44,5:7
44,6:11
44,7:11
44,8:4
44,10:3
44,11:12
44,12:12
44,13:1
44,14:16
44,16:3
44,17:4
44,18:7
44,19:7
44,20:11
44,21:11
44,22:16
44,23:11
44,24:7
44,25:18
44,26:4
44,27:4
44,28:8
44,30:7
44,31:18
44,32:4
44,33:8
44,34:4
44,36:5
44,37:5
44,41:7
44,48:18
44,52:20
44,53:18
44,56:9
44,57:7
44,58:16
44,59:1
44,60:5
44,61:5
44,63:20
44,64:9
44,67:5
44,68:12
44,70:1
45,1:7
45,2:7
45,3:7
45,4:11
45,5:7
45,6:11
45,7:11
45,8:4
45,10:3
45,11:12
45,12:12
45,13:1
45,14:16
45,16:3
45,17:4
45,18:7
45,19:7
45,20:11
45,21:11
45,22:16
45,23:11
45,24:7
45,25:18
45,26:4
45,27:4
45,28:8
45,30:7
45,31:18
45,32:4
45,33:8
45,34:4
45,36:5
45,37:5
45,41:7
45,48:18
45,52:20
45,53:18
45,56:9
45,57:7
45,58:16
45,59:1
45,60:5
45,61:5
45,63:20
45,64:9
45,67:5
45,68:12
45,70:1
46,52:2
46,63:2
47,4:2
47,6:2
47,7:2
47,11:3
47,12:3
47,14:7
47,20:2
47,21:2
47,22:7
47,23:2
47,25:9
47,31:9
47,46:9
47,48:9
47,52:11
47,53:9
47,58:7
47,63:11
47,68:3
48,52:2
48,63:2
49,1:10
49,2:10
49,3:10
49,4:14
49,5:10
49,6:14
49,7:14
49,8:7
49,10:6
49,11:15
49,12:15
49,13:4
49,14:19
49,16:6
49,17:7
49,18:10
49,19:10
49,20:14
49,21:14
49,22:19
49,23:14
49,24:10
49,25:21
49,26:7
49,27:7
49,28:11
49,29:3
49,30:10
49,31:21
49,32:7
49,33:11
49,34:7
49,35:3
49,36:8
49,37:8
49,38:3
49,39:3
49,40:3
49,41:10
49,42:3
49,43:3
49,44:3
49,45:3
49,46:21
49,47:12
49,48:21
49,51:3
49,52:23
49,53:21
49,55:3
49,56:12
49,57:10
49,58:19
49,59:4
49,60:8
49,61:8
49,62:3
49,63:23
49,64:12
49,65:3
49,66:3
49,67:8
49,68:15
49,70:4
50,1:7
50,2:7
50,3:7
50,4:11
50,5:7
50,6:11
50,7:11
50,8:4
50,10:3
50,11:12
50,12:12
50,13:1
50,14:16
50,16:3
50,17:4
50,18:7
50,19:7
50,20:11
50,21:11
50,22:16
50,23:11
50,24:7
50,25:18
50,26:4
50,27:4
50,28:8
50,30:7
50,31:18
50,32:4
50,33:8
50,34:4
50,36:5
50,37:5
50,41:7
50,46:18
50,47:9
50,48:18
50,52:20
50,53:18
50,56:9
50,57:7
50,58:16
50,59:1
50,60:5
50,61:5
50,63:20
50,64:9
50,67:5
50,68:12
50,70:1
51,1:7
51,2:7
51,3:7
51,4:11
51,5:7
51,6:11
51,7:11
51,8:4
51,10:3
51,11:12
51,12:12
51,13:1
51,14:16
51,16:3
51,17:4
51,18:7
51,19:7
51,20:11
51,21:11
51,22:16
51,23:11
51,24:7
51,25:18
51,26:4
51,27:4
51,28:8
51,30:7
51,31:18
51,32:4
51,33:8
51,34:4
51,36:5
51,37:5
51,41:7
51,46:18
51,47:9
51,48:18
51,53:18
51,56:9
51,57:7
51,58:16
51,59:1
51,60:5
51,61:5
51,63:20
51,64:9
51,67:5
51,68:12
51,70:1
53,52:2
53,63:2
54,1:10
54,2:10
54,3:10
54,4:14
54,5:10
54,6:14
54,7:14
54,8:7
54,10:6
54,11:15
54,12:15
54,13:4
54,14:19
54,16:6
54,17:7
54,18:10
54,19:10
54,20:14
54,21:14
54,22:19
54,23:14
54,24:10
54,25:21
54,26:7
54,27:7
54,28:11
54,29:3
54,30:10
54,31:21
54,32:7
54,33:11
54,34:7
54,35:3
54,36:8
54,37:8
54,38:3
54,39:3
54,40:3
54,41:10
54,42:3
54,43:3
54,44:3
54,45:3
54,46:21
54,47:12
54,48:21
54,50:3
54,51:3
54,52:23
54,53:21
54,56:12
54,57:10
54,58:19
54,59:4
54,60:8
54,61:8
54,62:3
54,63:23
54,64:12
54,65:3
54,66:3
54,67:8
54,68:15
54,70:4
55,1:7
55,2:7
55,3:7
55,4:11
55,5:7
55,6:11
55,7:11
55,8:4
55,10:3
55,11:12
55,12:12
55,13:1
55,14:16
55,16:3
55,17:4
55,18:7
55,19:7
55,20:11
55,21:11
55,22:16
55,23:11
55,24:7
55,25:18
55,26:4
55,27:4
55,28:8
55,30:7
55,31:18
55,32:4
55,33:8
55,34:4
55,36:5
55,37:5
55,41:7
55,46:18
55,47:9
55,48:18
55,52:20
55,53:18
55,56:9
55,57:7
55,58:16
55,59:1
55,60:5
55,61:5
55,63:20
55,64:9
55,67:5
55,68:12
55,70:1
56,4:2
56,6:2
56,7:2
56,11:3
56,12:3
56,14:7
56,20:2
56,21:2
56,22:7
56,23:2
56,25:9
56,31:9
56,46:9
56,48:9
56,52:11
56,53:9
56,58:7
56,63:11
56,68:3
57,4:4
57,6:4
57,7:4
57,11:5
57,12:5
57,14:9
57,20:4
57,21:4
57,22:9
57,23:4
57,25:11
57,28:1
57,31:11
57,33:1
57,46:11
57,47:2
57,48:11
57,52:13
57,53:11
57,56:2
57,63:13
57,64:2
57,68:5
58,25:2
58,31:2
58,46:2
58,48:2
58,52:4
58,53:2
58,63:4
59,1:6
59,2:6
59,3:6
59,4:10
59,5:6
59,6:10
59,7:10
59,8:3
59,10:2
59,11:11
59,12:11
59,14:15
59,16:2
59,17:3
59,18:6
59,19:6
59,20:10
59,21:10
59,22:15
59,23:10
59,24:6
59,25:17
59,26:3
59,27:3
59,28:7
59,30:6
59,31:17
59,32:3
59,33:7
59,34:3
59,36:4
59,37:4
59,41:6
59,46:17
59,47:8
59,48:17
59,52:19
59,53:17
59,56:8
59,57:6
59,58:15
59,61:4
59,63:19
59,64:8
59,67:4
59,68:11
60,1:2
60,2:2
60,3:2
60,4:6
60,5:2
60,6:6
60,7:6
60,11:7
60,12:7
60,14:11
60,18:2
60,19:2
60,20:6
60,21:6
60,22:11
60,23:6
60,24:2
60,25:13
60,28:3
60,30:2
60,31:13
60,33:3
60,41:2
60,46:13
60,47:4
60,48:13
60,52:15
60,53:13
60,56:4
60,57:2
60,58:11
60,63:15
60,64:4
60,68:7
61,1:2
61,2:2
61,3:2
61,4:6
61,5:2
61,6:6
61,7:6
61,11:7
61,12:7
61,14:11
61,18:2
61,19:2
61,20:6
61,21:6
61,22:11
61,23:6
61,24:2
61,25:13
61,28:3
61,30:2
61,31:13
61,33:3
61,41:2
61,46:13
61,47:4
61,48:13
61,52:15
61,53:13
61,56:4
61,57:2
61,58:11
61,63:15
61,64:4
61,68:7
62,1:7
62,2:7
62,3:7
62,4:11
62,5:7
62,6:11
62,7:11
62,8:4
62,10:3
62,11:12
62,12:12
62,13:1
62,14:16
62,16:3
62,17:4
62,18:7
62,19:7
62,20:11
62,21:11
62,22:16
62,23:11
62,24:7
62,25:18
62,26:4
62,27:4
62,28:8
62,30:7
62,31:18
62,32:4
62,33:8
62,34:4
62,36:5
62,37:5
62,41:7
62,46:18
62,47:9
62,48:18
62,52:20
62,53:18
62,56:9
62,57:7
62,58:16
62,59:1
62,60:5
62,61:5
62,68:12
62,70:1
64,4:2
64,6:2
64,7:2
64,11:3
64,12:3
64,14:7
64,20:2
64,21:2
64,22:7
64,23:2
64,25:9
64,31:9
64,46:9
64,48:9
64,52:11
64,53:9
64,58:7
64,63:11
64,68:3
65,1:7
65,2:7
65,3:7
65,4:11
65,5:7
65,6:11
65,7:11
65,8:4
65,10:3
65,11:12
65,12:12
65,13:1
65,14:16
65,16:3
65,17:4
65,18:7
65,19:7
65,20:11
65,21:11
65,22:16
65,23:11
65,24:7
65,25:18
65,26:4
65,27:4
65,28:8
65,30:7
65,31:18
65,32:4
65,33:8
65,34:4
65,36:5
65,37:5
65,41:7
65,46:18
65,47:9
65,48:18
65,52:20
65,53:18
65,56:9
65,57:7
65,58:16
65,59:1
65,60:5
65,61:5
65,63:20
65,64:9
65,67:5
65,68:12
65,70:1
66,1:7
66,2:7
66,3:7
66,4:11
66,5:7
66,6:11
66,7:11
66,8:4
66,10:3
66,11:12
66,12:12
66,13:1
66,14:16
66,16:3
66,17:4
66,18:7
66,19:7
66,20:11
66,21:11
66,22:16
66,23:11
66,24:7
66,25:18
66,26:4
66,27:4
66,28:8
66,30:7
66,31:18
66,32:4
66,33:8
66,34:4
66,36:5
66,37:5
66,41:7
66,46:18
66,47:9
66,48:18
66,52:20
66,53:18
66,56:9
66,57:7
66,58:16
66,59:1
66,60:5
66,61:5
66,63:20
66,64:9
66,67:5
66,68:12
66,70:1
67,1:2
67,2:2
67,3:2
67,4:6
67,5:2
67,6:6
67,7:6
67,11:7
67,12:7
67,14:11
67,18:2
67,19:2
67,20:6
67,21:6
67,22:11
67,23:6
67,24:2
67,25:13
67,28:3
67,30:2
67,31:13
67,33:3
67,41:2
67,46:13
67,47:4
67,48:13
67,52:15
67,53:13
67,56:4
67,57:2
67,58:11
67,63:15
67,64:4
67,68:7
68,14:4
68,22:4
68,25:6
68,31:6
68,46:6
68,48:6
68,52:8
68,53:6
68,58:4
68,63:8
69,1:10
69,2:10
69,3:10
69,4:14
69,5:10
69,6:14
69,7:14
69,8:7
69,10:6
69,11:15
69,12:15
69,13:4
69,14:19
69,16:6
69,17:7
69,18:10
69,19:10
69,20:14
69,21:14
69,22:19
69,23:14
69,24:10
69,25:21
69,26:7
69,27:7
69,28:11
69,29:3
69,30:10
69,31:21
69,32:7
69,33:11
69,34:7
69,35:3
69,36:8
69,37:8
69,38:3
69,39:3
69,40:3
69,41:10
69,42:3
69,43:3
69,44:3
69,45:3
69,46:21
69,47:12
69,48:21
69,50:3
69,51:3
69,52:23
69,53:21
69,55:3
69,56:12
69,57:10
69,58:19
69,59:4
69,60:8
69,61:8
69,62:3
69,63:23
69,64:12
69,65:3
69,66:3
69,67:8
69,68:15
69,70:4
70,1:6
70,2:6
70,3:6
70,4:10
70,5:6
70,6:10
70,7:10
70,8:3
70,10:2
70,11:11
70,12:11
70,14:15
70,16:2
70,17:3
70,18:6
70,19:6
70,20:10
70,21:10
70,22:15
70,23:10
70,24:6
70,25:17
70,26:3
70,27:3
70,28:7
70,30:6
70,31:17
70,32:3
70,33:7
70,34:3
70,36:4
70,37:4
70,41:6
70,46:17
70,47:8
70,48:17
70,52:19
70,53:17
70,56:8
70,57:6
70,58:15
70,60:4
70,61:4
70,63:19
70,64:8
70,67:4
70,68:11

<end>

<optimal SALBP-1 value>
20


<rand seed>
467321153

